67
Route #1: 1 12 29 
Route #2: 2 
Route #3: 3 23 37 
Route #4: 4 
Route #5: 5 
Route #6: 6 26 
Route #7: 7 
Route #8: 8 27 
Route #9: 9 30 
Route #10: 10 
Route #11: 11 25 35 48 
Route #12: 13 22 
Route #13: 14 
Route #14: 15 32 44 
Route #15: 16 34 54 
Route #16: 17 28 
Route #17: 18 33 
Route #18: 19 38 
Route #19: 20 36 
Route #20: 21 39 
Route #21: 24 41 63 
Route #22: 31 53 69 
Route #23: 40 64 
Route #24: 42 72 
Route #25: 43 49 56 66 
Route #26: 45 61 
Route #27: 46 71 
Route #28: 47 70 
Route #29: 50 76 
Route #30: 51 75 
Route #31: 52 82 
Route #32: 55 73 81 
Route #33: 57 86 
Route #34: 58 78 
Route #35: 59 
Route #36: 60 67 87 
Route #37: 62 79 91 
Route #38: 65 99 
Route #39: 68 80 102 
Route #40: 74 
Route #41: 77 88 105 
Route #42: 83 96 110 127 
Route #43: 84 107 
Route #44: 85 112 
Route #45: 89 98 116 134 
Route #46: 90 108 121 
Route #47: 92 113 
Route #48: 93 111 140 
Route #49: 94 114 136 
Route #50: 95 97 106 130 
Route #51: 100 120 
Route #52: 101 132 
Route #53: 103 122 135 
Route #54: 104 123 148 
Route #55: 109 137 
Route #56: 115 146 
Route #57: 117 143 
Route #58: 118 144 
Route #59: 119 133 
Route #60: 124 141 
Route #61: 125 145 
Route #62: 126 150 
Route #63: 128 147 
Route #64: 129 149 
Route #65: 131 
Route #66: 138 142 
Route #67: 139 
Cost 108066.0
